NAME: st70-16-3
TYPE: TSP
COMMENT: min_cost = 393.14
DIMENSION: 16
EDGE_WEIGHT_TYPE: EUC_2D
NODE_COORD_SECTION
1 68 40
2 77 13
3 62 1
4 9 100
5 30 23
6 64 96
7 27 43
8 87 18
9 40 35
10 79 70
11 57 91
12 6 8
13 17 82
14 95 86
15 5 67
16 64 8
EOF
